5
20
62
40	23
1	4	7	6	7	6	13	4	8	4	
2	4	18	3	12	2	10	4	4	4	
3	1	23	3	
4	3	8	3	7	8	19	3	
5	5	9	5	6	3	6	6	10	4	6	3	
6	1	9	2	
7	4	11	4	9	3	7	3	7	4	
8	2	7	2	14	3	
9	4	11	3	5	2	5	3	12	5	
10	2	12	3	6	7	
11	1	8	8	
12	5	5	4	6	9	4	9	7	4	6	5	
13	4	5	4	8	2	11	3	7	5	
14	1	12	4	
15	1	7	5	
16	5	6	6	14	3	18	3	10	6	4	5	
17	4	6	3	10	4	11	3	13	2	
18	5	6	5	12	5	6	5	15	3	12	3	
19	4	7	10	7	3	7	10	4	5	
20	2	4	4	23	2	
